Optimal - objective value 71.00000000
      0 Cmax      70.9999999999995                       0
      1 C_0       70.9999999999994                       0
      2 C_1       70.9999999999996                       0
      3 C_2                    13                       0
      4 C_3                    39                       0
      5 C_4       21.0000000000001                       0
      6 C_5       40.9999999999998                       0
      7 C_6       56.9999999999998                       0
      8 C_7       28.9999999999998                       0
      9 x_0_0                   1                       0
     12 x_1_1                   1                     264
     14 x_2_1                   1                     528
     15 x_3_0                   1                       0
     17 x_4_0                   1                       0
     20 x_5_1                   1                     528
     22 x_6_1                   1                     528
     24 x_7_1                   1                     528
     28 d_0_2_1                 1                       0
     32 d_0_4_1                 1                       0
     35 d_0_6_0                 1                       0
     38 d_0_7_1                 1                       0
     39 d_1_2_0                 1                       0
     42 d_1_3_1                 1                       0
     43 d_1_4_0                 1                       0
     45 d_1_5_0                 1                       0
     49 d_1_7_0                 1                       0
     53 d_2_4_0                 1                       0
     54 d_2_4_1                 1                       0
     55 d_2_5_0                 1                       0
     56 d_2_5_1                 1                       0
     58 d_2_6_1                 1                       0
     59 d_2_7_0                 1                       0
     60 d_2_7_1                 1                     264
     62 d_3_4_1                 1                       0
     63 d_3_5_0                 1                       0
     67 d_3_7_0                 1                       0
     68 d_3_7_1                 1                       0
     69 d_4_5_0                 1                       0
     70 d_4_5_1                 1                       0
     71 d_4_6_0                 1                       0
     72 d_4_6_1                 1                       0
     73 d_4_7_0                 1                       0
     75 d_5_6_0                 1                       0
     76 d_5_6_1                 1                     264
     77 d_5_7_0                 1                       0
     79 d_6_7_0                 1                       0
